nbGenes = 10;
preference = [[0 67 77 43 64 21 62 21 57 27 ]
[33 0 17 6 90 51 95 99 20 85 ]
[23 83 0 46 99 46 91 4 90 40 ]
[57 94 54 0 16 10 40 33 43 24 ]
[36 10 1 84 0 83 86 0 65 84 ]
[79 49 54 90 17 0 80 52 45 11 ]
[38 5 9 60 14 20 0 85 83 11 ]
[79 1 96 67 100 48 15 0 85 67 ]
[43 80 10 57 35 55 17 15 0 53 ]
[73 15 60 76 16 89 89 33 47 0 ]
];
